NAME : LPS-n17-m269
COMMENT : (Lartu-Peter-Santi Plot, instance 5869 out of 39200. 17 customers.)
TYPE : CVRP
DIMENSION : 17
EDGE_WEIGHT_TYPE : EUC_2D
CAPACITY : 102
NODE_COORD_SECTION
 1 17 18
 2 89 37
 3 81 23
 4 0 25
 5 29 54
 6 4 38
 7 61 16
 8 14 90
 9 91 26
 10 62 9
 11 51 81
 12 32 58
 13 79 6
 14 49 75
 15 29 20
 16 34 10
 17 43 46
DEMAND_SECTION
1 0
2 7
3 16
4 43
5 57
6 80
7 9
8 15
9 60
10 78
11 86
12 16
13 49
14 83
15 38
16 88
17 4
DEPOT_SECTION
 1
 -1
EOF
